50	50290

275 375
386 487
129 230
835 933
900 1000
664 762
230 329
850 950
456 555
893 993
35 134
227 325
641 741
162 261
431 529
321 420
682 781
113 214
390 490
565 663
904 1003
696 796
671 771
819 917
974 1075
231 329
586 686
227 327
270 369
506 607
612 710
842 942
95 193
254 353
496 596
62 163
915 1013
221 319
371 471
171 270
922 1022
839 939
373 472
216 317
855 953
662 760
485 584
602 701
745 845
338 439
